unsat
(define-fun SC ((s (_ BitVec 4)) (t (_ BitVec 4))) Bool (not (bvult t (bvand s (bvashr s s)))))
10.32user 0.11system 0:10.45elapsed 99%CPU (0avgtext+0avgdata 131360maxresident)k
0inputs+8outputs (0major+45363minor)pagefaults 0swaps
